Selected objective sense:  MINIMIZE
Selected objective  name:  OBJ
Selected RHS        name:  RHS1
Selected bound      name:  BND1
CPXPARAM_Preprocessing_Presolve                  0
CPXPARAM_LPMethod                                4
CPXPARAM_Threads                                 1
CPXPARAM_SolutionType                            2
CPXPARAM_TimeLimit                               3600
Tried aggregator 0 times.
DUAL formed by presolve
Reduced presolve eliminated 613 rows and 709 columns.
Reduced LP has 13771 rows, 3579 columns, and 595173 nonzeros.
Presolve time = 0.13 sec. (167.63 ticks)
Parallel mode: none, using 1 thread for barrier

***NOTE: Found 48 dense columns.

Number of nonzeros in lower triangle of A*A' = 24610
Using Approximate Minimum Degree ordering
Total time for automatic ordering = 0.00 sec. (2.29 ticks)
Summary statistics for Cholesky factor:
  Rows in Factor            = 13819
  Integer space required    = 171546
  Total non-zeros in factor = 660284
  Total FP ops to factor    = 32187336
 Itn      Primal Obj        Dual Obj  Prim Inf Upper Inf  Dual Inf Inf Ratio
   0  -1.0322470e+07   1.5177241e+08  1.19e+05  0.00e+00  1.38e+07  1.00e+00
   1  -4.3453172e+07   9.4962747e+07  8.21e+04  1.24e-12  1.09e+07  1.03e-03
   2  -1.7635183e+07   5.8303803e+07  2.46e+04  3.13e-12  6.96e+06  3.53e-04
   3  -1.1087369e+07   2.5757163e+06  7.83e+03  2.24e-12  1.13e+06  7.14e-03
   4  -1.4987886e+06   1.2948577e+05  1.01e+03  2.02e-12  1.14e+05  2.46e-02
   5  -1.1130698e+06   4.1011475e+05  8.64e+02  9.82e-12  8.66e+04  1.12e-02
   6  -6.6963375e+05   1.5578167e+05  4.96e+02  7.60e-12  4.20e+04  2.15e-02
   7  -1.6594944e+05   1.7722216e+04  1.13e+02  1.15e-12  8.80e+03  3.27e-01
   8  -1.9734329e+04   1.3684569e+04  2.02e+01  2.70e-12  2.35e+03  1.23e+00
   9  -2.8432590e+03   1.3298488e+04  9.43e+00  1.73e-12  1.85e+03  1.33e+00
  10   6.9399494e+03   1.2625803e+04  3.24e+00  3.35e-12  8.50e+02  2.50e+00
  11   1.0130451e+04   1.2374501e+04  1.27e+00  1.97e-12  3.58e+02  5.90e+00
  12   1.1542513e+04   1.2243193e+04  3.71e-01  2.82e-12  1.69e+02  1.25e+01
  13   1.1787867e+04   1.2161249e+04  1.98e-01  3.04e-12  8.93e+01  2.56e+01
  14   1.1940621e+04   1.2129710e+04  8.50e-02  8.45e-12  6.27e+01  3.80e+01
  15   1.1992996e+04   1.2084765e+04  3.81e-02  3.68e-12  3.28e+01  8.23e+01
  16   1.2016139e+04   1.2068274e+04  1.90e-02  3.90e-12  2.10e+01  1.40e+02
  17   1.2027523e+04   1.2060804e+04  9.52e-03  1.73e-12  1.56e+01  1.98e+02
  18   1.2033221e+04   1.2055903e+04  4.63e-03  5.85e-12  1.22e+01  2.65e+02
  19   1.2035770e+04   1.2052556e+04  2.49e-03  4.33e-12  9.79e+00  3.42e+02
  20   1.2036602e+04   1.2051192e+04  1.86e-03  7.58e-12  8.80e+00  3.89e+02
  21   1.2037625e+04   1.2050221e+04  1.10e-03  3.25e-12  8.09e+00  4.29e+02
  22   1.2038198e+04   1.2047456e+04  8.32e-04  3.03e-12  5.91e+00  6.01e+02
  23   1.2038687e+04   1.2046863e+04  5.24e-04  3.03e-12  5.47e+00  6.60e+02
  24   1.2039058e+04   1.2046040e+04  2.92e-04  2.38e-12  4.86e+00  7.62e+02
  25   1.2039300e+04   1.2044779e+04  1.48e-04  1.02e-11  3.91e+00  9.91e+02
  26   1.2039498e+04   1.2044100e+04  7.32e-05  1.30e-12  3.39e+00  1.18e+03
  27   1.2039686e+04   1.2042690e+04  2.01e-05  4.98e-12  2.29e+00  1.92e+03
  28   1.2039861e+04   1.2042083e+04  1.02e-05  6.28e-12  1.77e+00  2.53e+03
  29   1.2039937e+04   1.2041482e+04  5.92e-06  8.67e-12  1.25e+00  3.69e+03
  30   1.2040046e+04   1.2040953e+04  1.21e-06  8.02e-12  7.78e-01  6.09e+03
  31   1.2040043e+04   1.2040605e+04  2.77e-07  3.90e-12  4.81e-01  1.10e+04
  32   1.2040065e+04   1.2040260e+04  1.10e-07  2.82e-12  1.65e-01  4.25e+04
  33   1.2040083e+04   1.2040190e+04  7.36e-08  3.68e-12  9.08e-02  8.30e+04
  34   1.2040086e+04   1.2040151e+04  1.93e-06  3.90e-12  4.82e-02  1.60e+05
  35   1.2040100e+04   1.2040127e+04  1.31e-05  3.89e-12  2.04e-02  3.98e+05
  36   1.2040104e+04   1.2040115e+04  8.51e-05  7.11e-12  6.95e-03  1.21e+06
  37   1.2040106e+04   1.2040111e+04  2.17e-04  3.01e-12  3.08e-03  2.72e+06
  38   1.2040107e+04   1.2040110e+04  3.80e-04  2.78e-12  1.95e-03  4.26e+06
  39   1.2040108e+04   1.2040109e+04  4.22e-04  4.28e-12  7.18e-04  1.15e+07
  40   1.2040108e+04   1.2040109e+04  9.66e-04  1.71e-12  3.49e-04  2.20e+07
  41   1.2040108e+04   1.2040109e+04  1.18e-03  9.84e-12  1.44e-04  4.88e+07
Barrier time = 1.51 sec. (1993.85 ticks)

Total time on 1 threads = 1.51 sec. (1993.85 ticks)
Solve time: 1.512385843
Barrier iterations: 41
